# Solution for model F-JSSP-SDST
# Objective value = 231840
B0(12) 1
B1(12) 1
B2(12) 1
B3(14) 1
B4(7) 1
B5(12) 1
B6(14) 1
B7(12) 1
B8(8) 1
B9(11) 1
B10(13) 1
B11(9) 1
B12(13) 1
B13(13) 1
B14(14) 1
B15(13) 1
B16(13) 1
B17(13) 1
B18(14) 1
B19(12) 1
B20(12) 1
B21(12) 1
B22(12) 1
B23(11) 1
B24(2) 1
B25(2) 0
B26(2) 0
B27(2) 0
B28(2) 0
B29(2) 0
B30(2) 0
B31(2) 0
B32(2) 1
B33(2) 0
B34(2) 1
B35(2) 1
B36(2) 1
B37(2) 0
B38(2) 0
B39(2) 1
B40(2) 0
B41(2) 1
B42(2) 1
B43(2) 0
B44(2) 0
B45(2) 0
B46(2) 0
B47(2) 0
B48(2) 0
B49(2) 0
B50(2) 0
B51(2) 0
B52(2) 0
B53(2) 0
B54(2) 0
B55(2) 0
B56(2) 0
B57(2) 1
B58(2) 1
B59(2) 1
B60(2) 1
B61(2) 1
B62(2) 1
B63(2) 1
B64(2) 1
B65(2) 1
B66(2) 0
B67(2) 0
B68(2) 0
B69(2) 1
B70(2) 1
I71(12) 1440
I72(13) 2880
I73(13) 8640
I74(15) 11520
I75(8) 12960
I76(12) 0
I77(15) 1440
I78(13) 2880
I79(9) 4320
I80(12) 5760
I81(12) 7200
I82(9) 8640
I83(13) 11520
I84(13) 15840
I85(14) 17280
I86(12) 2880
I87(13) 4320
I88(13) 7200
I89(14) 14400
I90(12) 4320
I91(13) 7200
I92(13) 8640
I93(13) 10080
I94(12) 12960
I95(1) 231840
